9174
9174
9174
9174
9174
9174
9174
9174
9174
9174
9174
9174
9174
9174
9174
9174
9151
9151
8262
8262
8262
8262
8262
8262
8262
8262
8262
8262
8262
8262
8262
8262
8262
8262
8262
8262
8262
8262
8262
8262
8262
8262
8262
8262
8262
8262
8262
8262
8262
8262
8262
8262
8262
8262
8262
8262
8262
8262
8262
8262
8262
8262
8262
8262
8262
8262
8262
8262
8262
8262
8262
8262
8262
8262
8262
8262
8262
8262
8262
8262
8262
8262
8262
8262
8262
8262
8262
8262
8262
8262
8262
8262
8262
8262
8262
8262
8262
8262
8262
8262
8262
8262
8262
8262
8262
8262
8262
8262
8262
8262
8262
8262
8262
8262
8262
8262
8262
8262
8262
8262
8262
8262
8262
8262
8262
8262
8262
8262
8262
8262
8262
8262
8262
8262
8262
8262
8262
8262
8262
8262
8262
8262
8262
8262
8262
8262
8262
8262
8262
8262
8262
8262
8262
8262
8262
8262
8262
8262
8262
8262
8262
8262
8262
8262
8262
8262
8262
8262
8262
8262
8262
8262
8262
8262
8262
8262
8262
8262
8262
8262
8262
8262
8262
8262
8262
8262
8262
8262
8262
8262
8262
8262
8262
8262
8262
8262
8262
8262
8262
8262
8262
8262
8262
8262
8262
8262
8262
8262
8262
8262
8262
8262
8262
8262
8262
8262
8262
8262
8262
8262
8262
8262
8262
8262
8262
8262
8262
8262
8262
8262
8262
8262
8262
8262
8262
8262
8262
8262
8262
8262
8262
8262
8262
8262
8262
8262
8262
8262
8262
8262
8262
8262
8262
8262
8262
8262
8262
8262
8262
8262
8262
8262
8262
8262
8262
8262
8262
8262
8262
8262
8262
8262
8262
8262
8262
8262
8262
8262
8262
8262
8262
8262
8262
8262
8262
8262
8262
8262
8262
8262
8262
8262
8262
8262
8262
8262
8262
8262
8262
8262
8262
8262
8262
8262
8262
8262
8262
8262
8262
8262
8262
8262
8262
8262
8262
8262
8262
8262
8262
8262
8262
8262
8262
8262
8262
8262
8262
8262
8262
8262
8262
8262
8262
8262
8262
8262
8262
8262
8262
8262
8262
8262
8262
8262
8262
8262
8262
8262
8262
8262
8262
8262
8262
8262
8262
8262
8262
8262
8262
8262
8262
8262
8262
8262
8262
8262
8262
8262
8262
8262
8262
8262
8262
8262
8262
8262
8262
8262
8262
8262
8262
8262
8262
8262
8262
8262
8262
8262
8262
8262
8262
8262
8262
8262
8262
8262
8262
8262
8262
8262
8262
8262
8262
8262
8262
8262
8262
8262
8262
8262
8262
8262
8262
8262
8262
8262
8262
8262
8262
8262
8262
8262
8262
8262
8262
8262
8262
8262
8262
8262
8262
8262
8262
8262
8262
8262
8262
8262
8262
8262
8262
8262
8262
8262
8262
8262
8262
8262
8262
8262
8262
8262
8262
8262
8262
8262
8262
8262
8262
8262
8262
8262
8262
8262
8262
8262
8262
8262
8262
8262
8262
8262
8262
8262
8262
8262
8262
8262
8262
8262
8262
8262
8262
8262
8262
8262
8262
8262
8262
8262
8262
8262
8262
8262
8262
8262
8262
8262
8262
8262
8262
8262
8262
8262
8262
8262
8262
8262
8262
8262
8262
8262
8262
8262
8262
8262
8262
8262
8262
8262
8262
8262
8262
8262
8262
8262
8262
8262
8262
8262
8262
8262
8262
8262
8262
8262
8262
8262
8262
8262
8262
8262
8262
8262
8262
8262
8262
8262
8262
8262
8262
8262
8262
8262
8262
8262
8262
8262
8262
8262
8262
8262
8262
8262
8262
8262
8262
8262
8262
8262
8262
8262
8262
8262
8262
8262
8262
8262
8262
8262
8262
8262
8262
8262
8262
8262
8262
8262
8262
8262
8262
8262
8262
8262
8262
8262
8262
8262
8262
8262
8262
8262
8262
8262
8262
8262
8262
8262
8262
8262
8262
8262
8262
8262
8262
8262
8262
8262
8262
8262
8262
8262
8262
8262
8262
8262
8262
8262
8262
8262
8262
8262
8262
8262
8262
8262
8262
8262
8262
8262
8262
8262
8262
8262
8262
8262
8262
8262
8262
8262
8262
8262
8262
8262
8262
8262
8262
8262
8262
8262
8262
8262
8262
8262
8129
8129
8129
8129
8129
8129
8129
8129
8129
8129
8129
8129
8129
8129
8129
8129
8129
8129
8129
8129
8129
8129
8129
8129
8129
8129
8129
8129
8129
8129
8129
8129
8129
8129
8129
8129
8129
8129
8129
8129
8129
8129
8129
8129
8129
8129
8129
8129
8129
8129
8129
8129
8129
8129
8129
8129
8129
8129
8129
8129
8129
8129
8129
8129
8129
8129
8129
8129
8129
8129
8129
8129
8129
8129
8129
8129
8129
8129
8129
8129
8129
8129
8129
8129
8129
8129
8129
8129
8129
8129
8129
8129
8129
8129
8129
8129
8129
8129
8129
8129
8129
8129
8129
8129
8129
8129
8129
8129
8129
8129
8129
8129
8129
8129
8129
8129
8129
8129
8129
8129
8129
8129
8129
8129
8129
8129
8129
8129
8129
8129
8129
8129
8129
8129
8129
8129
8129
8129
8129
8129
8129
8129
8129
8129
8129
8129
8129
8129
8129
8129
8129
8129
8129
8129
8129
8129
8129
8129
8129
8129
8129
8129
8129
8129
8129
8129
8129
8129
8129
8129
8129
8129
8129
8129
8129
8129
8129
8129
8129
8129
8129
8129
8129
8129
8129
8129
8129
8129
8129
8129
8129
8129
8129
8129
8129
8129
8129
8129
8129
8129
8129
8129
8129
8129
8129
8129
8129
8129
8129
8129
8129
8129
8129
8129
8129
8129
8129
8129
8129
8129
8129
8129
8129
8129
8129
8129
8129
8129
8129
8129
8129
8129
8129
8129
8129
8129
8129
8129
8129
8129
8129
8129
8129
8129
8129
8129
8129
8129
8129
8129
8129
8129
8129
8129
8129
8129
8129
8129
8129
8129
8129
8129
8129
8129
8129
8129
8129
8129
8129
8129
8129
8129
8129
8129
8129
8129
8129
8129
8129
8129
8129
8129
8129
8129
8129
8129
8129
8129
8129
8129
8129
8129
8129
8129
8129
8129
8129
8129
8129
8129
8129
8129
8129
8129
8129
8129
8129
8129
8129
8129
8129
8129
8129
8129
8129
8129
8129
8129
8129
8129
8129
8129
8129
8129
8129
8129
8129
8129
8129
8129
8129
8129
8129
8129
8129
8129
8129
8129
8129
8129
8129
8129
8129
8129
8129
8129
8129
8129
8129
8129
8129
8129
8129
8129
8129
8129
8129
8129
8129
8129
8129
8129
8129
8129
8129
8129
8129
8129
8129
8129
8129
8129
8129
8129
8129
8129
8129
8129
8129
8129
8129
8129
8129
8129
8129
8129
8129
8129
8129
8129
8129
8129
8129
8129
8129
8129
8129
8129
8129
8129
8129
8129
8129
8129
8129
8129
8129
8129
8129
8129
8129
8129
8129
8129
8129
8129
8129
8129
8129
8129
8129
8129
8129
8129
8129
8129
8129
8129
8129
8129
8129
8129
8129
8129
8129
8129
8129
8129
8129
8129
8129
8129
8129
8129
8129
8129
8129
8129
8129
8129
8129
8129
8129
8129
8129
8129
8129
8129
8129
8129
8129
8129
8129
8129
8129
8129
8129
8129
8129
8129
8129
8129
8129
8129
8129
8129
8129
8129
8129
8129
8129
8129
8129
8129
8129
8129
8129
8129
8129
8129
8129
8129
8129
8129
8129
8129
8129
8129
8129
8129
8129
8129
8129
8129
8129
8129
8129
8129
8129
8129
8129
8129
8129
8129
8129
8129
8129
8129
8129
8129
8129
8129
8129
8129
8129
8129
8129
8129
8129
8129
8129
8129
8129
8129
8129
8129
8129
8129
8129
8129
8129
8129
8129
8129
8129
8129
8129
8129
8129
8129
8129
8129
8129
8129
8129
8129
8129
8129
8129
8129
8129
8129
8129
8129
8129
8129
8129
8129
8129
8129
8129
8129
8129
8129
8129
8129
8129
8129
8129
8129
8129
8129
8129
8129
8129
8129
8129
8129
8129
8129
8129
8129
8129
8129
8129
8129
8129
8129
8129
8129
8129
8129
8129
8129
8129
8129
8129
8129
8129
8129
8129
8129
8129
8129
8129
8129
8129
8129
8129
8129
8129
8129
8129
8129
8129
8129
8129
8129
8129
8129
8129
8129
8129
8129
8129
8129
8129
8129
8129
8129
8129
8129
8129
8129
8129
8129
8129
8129
8129
8129
8129
8129
8129
8129
8129
8129
8129
8129
8129
8129
8129
8129
8129
8129
8129
8129
8129
8129
8129
8129
8129
8129
8129
8129
8129
8129
8129
8129
8129
8129
8129
8129
8129
8129
8129
8129
8129
8129
8129
8129
8129
8129
8129
8129
8129
8129
8129
8129
8129
8129
8129
8129
8129
8129
8129
8129
8129
8129
8129
8129
8129
8129
8129
8129
8129
8129
8129
8129
8129
8129
8129
8129
8129
8129
8129
8129
8129
8129
8129
8129
8129
8129
8129
8129
8129
8129
8129
8129
8129
8129
8129
8129
8129
8129
8129
8129
8129
8129
8129
8129
8129
8129
8129
8129
8129
8129
8129
8129
8129
8129
8129
8129
8129
8129
8129
8129
8129
8129
8129
8129
8129
8129
8129
8129
8129
8129
8129
8129
8129
8129
8129
8129
8129
8129
8129
8129
8129
8129
8129
8129
8129
8129
8129
8129
8129
8129
8129
8129
8129
8129
8129
8129
8129
8129
8129
8129
8129
8129
8129
8129
8129
8129
8129
8129
8129
8129
8129
8129
8129
8129
8129
8129
8129
8129
8129
8129
8129
8129
8129
8129
8129
8129
8129
8129
8129
8129
8129
8129
8129
8129
8129
8129
8129
8129
8129
8129
8129
8129
8129
8129
8129
8129
8129
8129
8129
8129
8129
8129
8129
8129
8129
8129
8129
8129
8129
8129
8129
8129
8129
8129
8129
8129
8129
8129
8129
8129
8129
8129
8129
8129
8129
8129
8129
8129
8129
8129
8129
8129
8129
8129
8129
8129
8129
8129
8129
8129
8129
8129
8129
8129
8129
8129
8129
8129
8129
8129
8129
8129
8129
8129
8129
8129
8129
8129
8129
8129
8129
8129
8129
8129
8129
8129
8129
8129
8129
8129
8129
8129
8129
8129
8129
8129
8129
8129
8129
8129
8129
8129
8129
8129
8129
8129
8129
8129
8129
8129
8129
8129
8129
8129
8129
8129
8129
8129
8129
8129
8129
8129
8129
8129
8129
8129
8129
8129
8129
8129
8129
8129
8129
8129
8129
8129
8129
8129
8129
8129
8129
8129
8129
8129
8129
8129
8129
8129
8129
8129
8129
8129
8129
8129
8129
8129
8129
8129
8129
8129
8129
8129
8129
8129
8129
8129
8129
8129
8129
8129
8129
8129
8129
8129
8129
8129
8129
8129
8129
8129
8129
8129
8129
8129
8129
8129
8129
8129
8129
8129
8129
8129
8129
8129
8129
8129
8129
8129
8129
8129
8129
8129
8129
8129
8129
8129
8129
8129
8129
8129
8129
8129
8129
8129
8129
8129
8129
8129
8129
8129
8129
8129
8129
8129
8129
8129
8129
8129
8129
8129
8129
8129
8129
8129
8129
8129
8129
8129
8129
8129
8129
8129
8129
8129
8129
8129
8129
8129
8129
8129
8129
8129
8129
8129
8129
8129
8129
8129
8129
8129
8129
8129
8129
8129
8129
8129
8129
8129
8129
8129
8129
8129
8129
8129
8129
8129
8129
8129
8129
8129
8129
8129
8129
8129
8129
8129
8129
8129
8129
8129
8129
8129
8129
8129
8129
8129
8129
8129
8129
8129
8129
8129
8129
8129
8129
8129
8129
8129
8129
8129
8129
8129
8129
8129
8129
8129
8129
8129
8129
8129
8129
8129
8129
8129
8129
8129
8129
8129
8129
8129
8129
8129
8129
8129
8129
8129
8129
8129
8129
8129
8129
8129
8129
8129
8129
8129
8129
8129
8129
8129
8129
8129
8129
8129
8129
8129
8129
8129
8129
8129
8129
8129
8129
8129
8129
8129
8129
8129
8129
8129
8129
8129
8129
8129
8129
8129
8129
8129
8129
8129
8129
8129
8129
8129
8129
8129
8129
8129
8129
8129
8129
8129
8129
8129
8129
8129
8129
8129
8129
8129
8129
8129
8129
8129
8129
8129
8129
8129
8129
8129
8129
8129
8129
8129
8129
8129
8129
8129
8129
8129
8129
8129
8129
8129
8129
8129
8129
8129
8129
8129
8129
8129
8129
8129
8129
8129
8129
8129
8129
8129
8129
8129
8129
8129
8129
8129
8129
8129
8129
8129
8129
8129
8129
8129
8129
8129
8129
8129
8129
8129
8129
8129
8129
8129
8129
8129
8129
8129
8129
8129
8129
8129
8129
8129
8129
8129
8129
8129
8129
8129
8129
8129
8129
8129
8129
8129
8129
8129
8129
8129
8129
8129
8129
8129
8129
8129
8129
8129
8129
